(set-logic QF_UF)
(declare-fun A0 () Bool)
(declare-fun A1 () Bool)
(declare-fun A2 () Bool)
(declare-fun A3 () Bool)
(declare-fun A4 () Bool)
(declare-fun A5 () Bool)
(declare-fun A6 () Bool)
(declare-fun A7 () Bool)
(declare-fun A8 () Bool)
(declare-fun A9 () Bool)
(declare-fun A10 () Bool)
(declare-fun A11 () Bool)
(declare-fun A12 () Bool)
(declare-fun A13 () Bool)
(declare-fun A14 () Bool)
(declare-fun A16 () Bool)
(declare-fun A17 () Bool)
(declare-fun A18 () Bool)
(declare-fun A19 () Bool)
(declare-fun A21 () Bool)
(declare-fun A22 () Bool)
(declare-fun A24 () Bool)
(assert (let ((.def_0 (not A4))) (let ((.def_1 (or .def_0 A21))) (let ((.def_2 (not A2))) (let ((.def_3 (and A7 .def_2))) (let ((.def_4 (and .def_3 .def_1))) (let ((.def_5 (not .def_4))) (let ((.def_6 (not A12))) (let ((.def_7 (and .def_6 A10))) (let ((.def_8 (not A13))) (let ((.def_9 (and .def_8 A21))) (let ((.def_10 (and .def_9 .def_7))) (let ((.def_11 (not .def_10))) (let ((.def_12 (and .def_11 .def_5))) (let ((.def_13 (not .def_12))) (let ((.def_14 (not A8))) (let ((.def_15 (or A3 .def_14))) (let ((.def_16 (not .def_15))) (let ((.def_17 (not A6))) (let ((.def_18 (and A24 .def_17))) (let ((.def_19 (or .def_18 .def_16))) (let ((.def_20 (or A22 A24))) (let ((.def_21 (not A11))) (let ((.def_22 (and .def_21 A14))) (let ((.def_23 (and .def_22 .def_20))) (let ((.def_24 (not .def_23))) (let ((.def_25 (and .def_24 .def_19))) (let ((.def_26 (or .def_25 .def_13))) (let ((.def_27 (or A24 A21))) (let ((.def_28 (not A9))) (let ((.def_29 (not A24))) (let ((.def_30 (= .def_29 .def_28))) (let ((.def_31 (not .def_30))) (let ((.def_32 (and .def_31 .def_27))) (let ((.def_33 (not .def_32))) (let ((.def_34 (and .def_0 .def_21))) (let ((.def_35 (not .def_34))) (let ((.def_36 (not A14))) (let ((.def_37 (and A17 .def_36))) (let ((.def_38 (not .def_37))) (let ((.def_39 (or .def_38 .def_35))) (let ((.def_40 (not .def_39))) (let ((.def_41 (or .def_40 .def_33))) (let ((.def_42 (or A19 A1))) (let ((.def_43 (or A0 A3))) (let ((.def_44 (and .def_43 .def_42))) (let ((.def_45 (not A22))) (let ((.def_46 (or .def_45 A8))) (let ((.def_47 (not .def_46))) (let ((.def_48 (or A6 .def_8))) (let ((.def_49 (or .def_48 .def_47))) (let ((.def_50 (not .def_49))) (let ((.def_51 (or .def_50 .def_44))) (let ((.def_52 (or .def_51 .def_41))) (let ((.def_53 (or .def_52 .def_26))) (let ((.def_54 (and A3 .def_6))) (let ((.def_55 (not .def_54))) (let ((.def_56 (or .def_36 A1))) (let ((.def_57 (not .def_56))) (let ((.def_58 (= .def_57 .def_55))) (let ((.def_59 (not .def_58))) (let ((.def_60 (or A19 A12))) (let ((.def_61 (not .def_60))) (let ((.def_62 (and .def_6 A24))) (let ((.def_63 (not .def_62))) (let ((.def_64 (or .def_63 .def_61))) (let ((.def_65 (not .def_64))) (let ((.def_66 (and .def_65 .def_59))) (let ((.def_67 (not .def_66))) (let ((.def_68 (and A4 .def_45))) (let ((.def_69 (not .def_68))) (let ((.def_70 (not A16))) (let ((.def_71 (or .def_70 .def_28))) (let ((.def_72 (and .def_71 .def_69))) (let ((.def_73 (not .def_72))) (let ((.def_74 (not A0))) (let ((.def_75 (= .def_74 A18))) (let ((.def_76 (not A18))) (let ((.def_77 (or .def_6 .def_76))) (let ((.def_78 (not .def_77))) (let ((.def_79 (= .def_78 .def_75))) (let ((.def_80 (not .def_79))) (let ((.def_81 (or .def_80 .def_73))) (let ((.def_82 (and .def_81 .def_67))) (let ((.def_83 (not A10))) (let ((.def_84 (or A10 .def_83))) (let ((.def_85 (not .def_84))) (let ((.def_86 (and A16 A7))) (let ((.def_87 (not .def_86))) (let ((.def_88 (or .def_87 .def_85))) (let ((.def_89 (or A0 .def_45))) (let ((.def_90 (and A1 .def_2))) (let ((.def_91 (not .def_90))) (let ((.def_92 (or .def_91 .def_89))) (let ((.def_93 (not .def_92))) (let ((.def_94 (or .def_93 .def_88))) (let ((.def_95 (not A21))) (let ((.def_96 (or .def_95 A0))) (let ((.def_97 (not .def_96))) (let ((.def_98 (and .def_36 A7))) (let ((.def_99 (not .def_98))) (let ((.def_100 (or .def_99 .def_97))) (let ((.def_101 (not .def_100))) (let ((.def_102 (= A5 A9))) (let ((.def_103 (and A10 .def_29))) (let ((.def_104 (or .def_103 .def_102))) (let ((.def_105 (not .def_104))) (let ((.def_106 (and .def_105 .def_101))) (let ((.def_107 (and .def_106 .def_94))) (let ((.def_108 (and .def_107 .def_82))) (let ((.def_109 (not .def_108))) (let ((.def_110 (or .def_109 .def_53))) (let ((.def_111 (not .def_110))) .def_111)))))))))))))))))))))))))))))))))))))))))))))))))))))))))))))))))))))))))))))))))))))))))))))))))))))))))))))))))
(check-sat)
